
%FILE DATA:	Soccer Computational Problem for MiniZinc Models	%
%AUTHOR:	Jack Wall	%
%CONTACT:  	116397063@umail.ucc.ie			%
%LAST UPDATE:	02/14/2020, 08:50:14						%
%DESCRIPTION: 	40 games played with 16 games left				%


n=8; %number of teams

%Games to play
games=[|2,6|7,1|2,8|6,8|7,2|4,1|4,3|1,4|7,6|8,2|1,3|2,7|6,4|7,4|7,8|5,4|];

%Initial points
iPoints=[13,13,18,5,20,14,10,16];

%POSITION CONSTRAINTS
% [|teamID, operator, position|...]
% operators index:
%  1 for =  operator
%  2 for >  operator
%  3 for >= operator
%  4 for <  operator
%  5 for <= operator
positionConstraints=[|8,1,1|5,3,2|3,5,3|];